maximize
 + 9.0 x00  + 3.0 x01  - 2.0 y0  - 2.0 y1  - 4.0 y2  - 1.0 y3  - 1.0 y4 
subject to
 + 2.0 x00  + 1.0 x01  - 2.0 y0  - 1.0 y1  - 1.0 y2  - 0.0 y3  - 0.0 y4 =  +0.0 
 + 0.0 x00  + 0.0 x01  - 0.0 y0  - 0.0 y1  - 0.0 y2  - 1.0 y3  - 1.0 y4 =  +0.0 
 +x00  +x01 =  +1.0 

 y0 <=  +2.0 
 y1 <=  +1.0 
 y2 <=  +1.0 
 y3 <=  +1.0 
 y4 <=  +1.0 

binary
 x00  x01 
general
 y0  y1  y2  y3  y4 
end